This is Ipopt version 3.12.12, running with linear solver mumps.
NOTE: Other linear solvers might be more efficient (see Ipopt documentation).

Number of nonzeros in equality constraint Jacobian...:   262010
Number of nonzeros in inequality constraint Jacobian.:    42000
Number of nonzeros in Lagrangian Hessian.............:   206001

Total number of variables............................:    38010
                     variables with only lower bounds:        0
                variables with lower and upper bounds:     2001
                     variables with only upper bounds:        0
Total number of equality constraints.................:    38010
Total number of inequality constraints...............:    16000
        inequality constraints with only lower bounds:        0
   inequality constraints with lower and upper bounds:        0
        inequality constraints with only upper bounds:    16000

iter    objective    inf_pr   inf_du lg(mu)  ||d||  lg(rg) alpha_du alpha_pr  ls
   0  0.0000000e+00 7.00e-01 1.00e+00   0.0 0.00e+00    -  0.00e+00 0.00e+00   0
MUMPS returned INFO(1) = -9 and requires more memory, reallocating.  Attempt 1
  Increasing icntl[13] from 1000 to 2000.
MUMPS returned INFO(1) = -9 and requires more memory, reallocating.  Attempt 2
  Increasing icntl[13] from 2000 to 4000.
   1  3.8481562e+01 4.51e-01 1.09e+01  -0.7 1.08e+02    -  1.69e-01 3.55e-01f  1
   2  3.8429178e+01 3.56e-02 4.16e+01  -0.4 4.51e-01   2.0 9.95e-01 9.22e-01h  1
   3  3.8645453e+01 5.15e-02 7.73e+01  -0.1 3.56e-01   1.5 8.11e-01 8.61e-01h  1
   4  3.8796920e+01 1.78e-02 2.35e+01   0.1 1.89e-01   1.9 1.00e+00 1.00e+00f  1
   5  3.8842201e+01 7.77e-04 4.47e+01  -0.2 7.87e-02   2.4 9.83e-01 1.00e+00h  1
   6  3.8976854e+01 1.09e-02 3.20e+03   0.4 6.72e-01   1.9 8.39e-01 6.18e-01f  1
   7  3.9414041e+01 7.93e-03 8.94e+01   0.2 4.37e-01   1.4 1.00e+00 1.00e+00h  1
   8  3.9839216e+01 7.86e-03 8.86e+01  -0.5 1.05e+03    -  9.71e-03 8.86e-03h  5
   9  4.2055359e+01 7.10e-03 1.35e+02  -1.2 3.57e+02    -  5.79e-02 9.74e-02h  3
iter    objective    inf_pr   inf_du lg(mu)  ||d||  lg(rg) alpha_du alpha_pr  ls
  10  5.6304883e+01 5.25e-03 1.32e+03  -1.2 1.31e+02    -  6.57e-01 7.97e-01h  1
  11  5.8096757e+01 3.45e-03 8.62e+03  -1.2 1.99e+02    -  5.77e-03 8.53e-01H  1
  12  5.8691119e+01 3.36e-03 4.64e+03  -1.2 6.22e+01    -  3.65e-01 2.53e-02f  1
  13  5.9216957e+01 3.34e-03 3.61e+03  -1.2 7.32e+01    -  1.45e-01 7.18e-03f  1
  14  6.6823397e+01 3.12e-03 2.99e+03  -1.2 1.13e+02    -  1.29e-01 6.74e-02f  4
  15  7.9615637e+01 7.53e-03 4.19e+03  -1.2 1.25e+02    -  2.50e-01 1.00e+00H  1
  16  8.7228606e+01 3.86e-03 2.82e+03  -1.2 7.76e+00    -  1.81e-01 1.00e+00f  1
  17  8.5695977e+01 7.59e-03 2.13e+03  -1.2 2.45e+00    -  1.81e-01 1.00e+00f  1
  18  8.1309772e+01 4.73e-03 1.93e+03  -1.2 4.39e+00    -  1.54e-01 1.00e+00f  1
  19  7.6953750e+01 5.57e-04 1.67e+03  -6.8 4.60e+00    -  1.73e-01 9.48e-01f  1
iter    objective    inf_pr   inf_du lg(mu)  ||d||  lg(rg) alpha_du alpha_pr  ls
  20  7.3601695e+01 7.44e-05 3.91e+03  -6.9 3.49e+00    -  8.86e-02 9.62e-01f  1
  21  7.0625841e+01 1.33e-01 3.76e+04  -0.4 1.16e+01    -  5.07e-02 5.95e-01f  1
  22  6.8642265e+01 1.08e-01 3.20e+04  -0.9 3.40e+00    -  1.40e-01 6.41e-01h  1
  23  7.7730079e+01 4.00e-02 2.37e+04  -0.9 9.14e+00    -  2.71e-01 1.00e+00f  1
  24  7.8234353e+01 1.10e-02 1.27e+03  -0.9 8.09e-01    -  9.47e-01 1.00e+00h  1
  25  7.3912953e+01 8.83e-02 2.24e+00  -0.9 4.32e+00    -  1.00e+00 1.00e+00f  1
  26  7.2399568e+01 3.16e-02 1.50e+02  -1.6 5.52e+00    -  1.00e+00 6.39e-01H  1
  27  7.1494349e+01 5.74e-04 1.56e+00  -2.2 3.72e+00    -  9.79e-01 1.00e+00H  1
  28  7.1743113e+01 1.64e-03 5.21e+00  -2.8 2.79e-01    -  9.89e-01 7.26e-01H  1
  29  7.2028781e+01 4.34e-05 4.76e-03  -3.5 1.55e-01    -  1.00e+00 1.00e+00H  1
iter    objective    inf_pr   inf_du lg(mu)  ||d||  lg(rg) alpha_du alpha_pr  ls
  30  7.2019107e+01 5.56e-04 4.77e-01  -9.5 3.72e-02    -  9.35e-01 9.98e-01h  1
  31  7.2028438e+01 3.06e-06 1.02e-06  -6.8 9.33e-03    -  1.00e+00 1.00e+00h  1
  32  7.2028439e+01 3.37e-10 1.39e-10 -11.0 2.59e-05    -  1.00e+00 1.00e+00h  1
  33  7.2028440e+01 1.42e-14 4.17e-13 -11.0 5.63e-07    -  1.00e+00 1.00e+00h  1
Cannot recompute multipliers for feasibility problem.  Error in eq_mult_calculator

Number of Iterations....: 33

                                   (scaled)                 (unscaled)
Objective...............:   7.2028439836361713e+01    7.2028439836361713e+01
Dual infeasibility......:   7.3572831863290019e+04    7.3572831863290019e+04
Constraint violation....:   1.4210854715202004e-14    1.4210854715202004e-14
Complementarity.........:   0.0000000000000000e+00    0.0000000000000000e+00
Overall NLP error.......:   1.4210854715202004e-14    7.3572831863290019e+04


Number of objective function evaluations             = 61
Number of objective gradient evaluations             = 34
Number of equality constraint evaluations            = 61
Number of inequality constraint evaluations          = 61
Number of equality constraint Jacobian evaluations   = 34
Number of inequality constraint Jacobian evaluations = 34
Number of Lagrangian Hessian evaluations             = 33
Total CPU secs in IPOPT (w/o function evaluations)   =    617.940
Total CPU secs in NLP function evaluations           =    175.886

EXIT: Optimal Solution Found.
